50

  0    1    1    2    2    3    3    4    4    5    5    6    6    7    7    8    8    9    9   10   10   11   11   12   12   13   13   14   14   15   15   16   16   17   17   18   18   19   19   20   20   21   21   22   22   23   23   24   24   25  
  1    0    2    1    3    2    4    3    5    4    6    5    7    6    8    7    9    8   10    9   11   10   12   11   13   12   14   13   15   14   16   15   17   16   18   17   19   18   20   19   21   20   22   21   23   22   24   23   25   24  
  1    2    0    1    1    2    2    3    3    4    4    5    5    6    6    7    7    8    8    9    9   10   10   11   11   12   12   13   13   14   14   15   15   16   16   17   17   18   18   19   19   20   20   21   21   22   22   23   23   24  
  2    1    1    0    2    1    3    2    4    3    5    4    6    5    7    6    8    7    9    8   10    9   11   10   12   11   13   12   14   13   15   14   16   15   17   16   18   17   19   18   20   19   21   20   22   21   23   22   24   23  
  2    3    1    2    0    1    1    2    2    3    3    4    4    5    5    6    6    7    7    8    8    9    9   10   10   11   11   12   12   13   13   14   14   15   15   16   16   17   17   18   18   19   19   20   20   21   21   22   22   23  
  3    2    2    1    1    0    2    1    3    2    4    3    5    4    6    5    7    6    8    7    9    8   10    9   11   10   12   11   13   12   14   13   15   14   16   15   17   16   18   17   19   18   20   19   21   20   22   21   23   22  
  3    4    2    3    1    2    0    1    1    2    2    3    3    4    4    5    5    6    6    7    7    8    8    9    9   10   10   11   11   12   12   13   13   14   14   15   15   16   16   17   17   18   18   19   19   20   20   21   21   22  
  4    3    3    2    2    1    1    0    2    1    3    2    4    3    5    4    6    5    7    6    8    7    9    8   10    9   11   10   12   11   13   12   14   13   15   14   16   15   17   16   18   17   19   18   20   19   21   20   22   21  
  4    5    3    4    2    3    1    2    0    1    1    2    2    3    3    4    4    5    5    6    6    7    7    8    8    9    9   10   10   11   11   12   12   13   13   14   14   15   15   16   16   17   17   18   18   19   19   20   20   21  
  5    4    4    3    3    2    2    1    1    0    2    1    3    2    4    3    5    4    6    5    7    6    8    7    9    8   10    9   11   10   12   11   13   12   14   13   15   14   16   15   17   16   18   17   19   18   20   19   21   20  
  5    6    4    5    3    4    2    3    1    2    0    1    1    2    2    3    3    4    4    5    5    6    6    7    7    8    8    9    9   10   10   11   11   12   12   13   13   14   14   15   15   16   16   17   17   18   18   19   19   20  
  6    5    5    4    4    3    3    2    2    1    1    0    2    1    3    2    4    3    5    4    6    5    7    6    8    7    9    8   10    9   11   10   12   11   13   12   14   13   15   14   16   15   17   16   18   17   19   18   20   19  
  6    7    5    6    4    5    3    4    2    3    1    2    0    1    1    2    2    3    3    4    4    5    5    6    6    7    7    8    8    9    9   10   10   11   11   12   12   13   13   14   14   15   15   16   16   17   17   18   18   19  
  7    6    6    5    5    4    4    3    3    2    2    1    1    0    2    1    3    2    4    3    5    4    6    5    7    6    8    7    9    8   10    9   11   10   12   11   13   12   14   13   15   14   16   15   17   16   18   17   19   18  
  7    8    6    7    5    6    4    5    3    4    2    3    1    2    0    1    1    2    2    3    3    4    4    5    5    6    6    7    7    8    8    9    9   10   10   11   11   12   12   13   13   14   14   15   15   16   16   17   17   18  
  8    7    7    6    6    5    5    4    4    3    3    2    2    1    1    0    2    1    3    2    4    3    5    4    6    5    7    6    8    7    9    8   10    9   11   10   12   11   13   12   14   13   15   14   16   15   17   16   18   17  
  8    9    7    8    6    7    5    6    4    5    3    4    2    3    1    2    0    1    1    2    2    3    3    4    4    5    5    6    6    7    7    8    8    9    9   10   10   11   11   12   12   13   13   14   14   15   15   16   16   17  
  9    8    8    7    7    6    6    5    5    4    4    3    3    2    2    1    1    0    2    1    3    2    4    3    5    4    6    5    7    6    8    7    9    8   10    9   11   10   12   11   13   12   14   13   15   14   16   15   17   16  
  9   10    8    9    7    8    6    7    5    6    4    5    3    4    2    3    1    2    0    1    1    2    2    3    3    4    4    5    5    6    6    7    7    8    8    9    9   10   10   11   11   12   12   13   13   14   14   15   15   16  
 10    9    9    8    8    7    7    6    6    5    5    4    4    3    3    2    2    1    1    0    2    1    3    2    4    3    5    4    6    5    7    6    8    7    9    8   10    9   11   10   12   11   13   12   14   13   15   14   16   15  
 10   11    9   10    8    9    7    8    6    7    5    6    4    5    3    4    2    3    1    2    0    1    1    2    2    3    3    4    4    5    5    6    6    7    7    8    8    9    9   10   10   11   11   12   12   13   13   14   14   15  
 11   10   10    9    9    8    8    7    7    6    6    5    5    4    4    3    3    2    2    1    1    0    2    1    3    2    4    3    5    4    6    5    7    6    8    7    9    8   10    9   11   10   12   11   13   12   14   13   15   14  
 11   12   10   11    9   10    8    9    7    8    6    7    5    6    4    5    3    4    2    3    1    2    0    1    1    2    2    3    3    4    4    5    5    6    6    7    7    8    8    9    9   10   10   11   11   12   12   13   13   14  
 12   11   11   10   10    9    9    8    8    7    7    6    6    5    5    4    4    3    3    2    2    1    1    0    2    1    3    2    4    3    5    4    6    5    7    6    8    7    9    8   10    9   11   10   12   11   13   12   14   13  
 12   13   11   12   10   11    9   10    8    9    7    8    6    7    5    6    4    5    3    4    2    3    1    2    0    1    1    2    2    3    3    4    4    5    5    6    6    7    7    8    8    9    9   10   10   11   11   12   12   13  
 13   12   12   11   11   10   10    9    9    8    8    7    7    6    6    5    5    4    4    3    3    2    2    1    1    0    2    1    3    2    4    3    5    4    6    5    7    6    8    7    9    8   10    9   11   10   12   11   13   12  
 13   14   12   13   11   12   10   11    9   10    8    9    7    8    6    7    5    6    4    5    3    4    2    3    1    2    0    1    1    2    2    3    3    4    4    5    5    6    6    7    7    8    8    9    9   10   10   11   11   12  
 14   13   13   12   12   11   11   10   10    9    9    8    8    7    7    6    6    5    5    4    4    3    3    2    2    1    1    0    2    1    3    2    4    3    5    4    6    5    7    6    8    7    9    8   10    9   11   10   12   11  
 14   15   13   14   12   13   11   12   10   11    9   10    8    9    7    8    6    7    5    6    4    5    3    4    2    3    1    2    0    1    1    2    2    3    3    4    4    5    5    6    6    7    7    8    8    9    9   10   10   11  
 15   14   14   13   13   12   12   11   11   10   10    9    9    8    8    7    7    6    6    5    5    4    4    3    3    2    2    1    1    0    2    1    3    2    4    3    5    4    6    5    7    6    8    7    9    8   10    9   11   10  
 15   16   14   15   13   14   12   13   11   12   10   11    9   10    8    9    7    8    6    7    5    6    4    5    3    4    2    3    1    2    0    1    1    2    2    3    3    4    4    5    5    6    6    7    7    8    8    9    9   10  
 16   15   15   14   14   13   13   12   12   11   11   10   10    9    9    8    8    7    7    6    6    5    5    4    4    3    3    2    2    1    1    0    2    1    3    2    4    3    5    4    6    5    7    6    8    7    9    8   10    9  
 16   17   15   16   14   15   13   14   12   13   11   12   10   11    9   10    8    9    7    8    6    7    5    6    4    5    3    4    2    3    1    2    0    1    1    2    2    3    3    4    4    5    5    6    6    7    7    8    8    9  
 17   16   16   15   15   14   14   13   13   12   12   11   11   10   10    9    9    8    8    7    7    6    6    5    5    4    4    3    3    2    2    1    1    0    2    1    3    2    4    3    5    4    6    5    7    6    8    7    9    8  
 17   18   16   17   15   16   14   15   13   14   12   13   11   12   10   11    9   10    8    9    7    8    6    7    5    6    4    5    3    4    2    3    1    2    0    1    1    2    2    3    3    4    4    5    5    6    6    7    7    8  
 18   17   17   16   16   15   15   14   14   13   13   12   12   11   11   10   10    9    9    8    8    7    7    6    6    5    5    4    4    3    3    2    2    1    1    0    2    1    3    2    4    3    5    4    6    5    7    6    8    7  
 18   19   17   18   16   17   15   16   14   15   13   14   12   13   11   12   10   11    9   10    8    9    7    8    6    7    5    6    4    5    3    4    2    3    1    2    0    1    1    2    2    3    3    4    4    5    5    6    6    7  
 19   18   18   17   17   16   16   15   15   14   14   13   13   12   12   11   11   10   10    9    9    8    8    7    7    6    6    5    5    4    4    3    3    2    2    1    1    0    2    1    3    2    4    3    5    4    6    5    7    6  
 19   20   18   19   17   18   16   17   15   16   14   15   13   14   12   13   11   12   10   11    9   10    8    9    7    8    6    7    5    6    4    5    3    4    2    3    1    2    0    1    1    2    2    3    3    4    4    5    5    6  
 20   19   19   18   18   17   17   16   16   15   15   14   14   13   13   12   12   11   11   10   10    9    9    8    8    7    7    6    6    5    5    4    4    3    3    2    2    1    1    0    2    1    3    2    4    3    5    4    6    5  
 20   21   19   20   18   19   17   18   16   17   15   16   14   15   13   14   12   13   11   12   10   11    9   10    8    9    7    8    6    7    5    6    4    5    3    4    2    3    1    2    0    1    1    2    2    3    3    4    4    5  
 21   20   20   19   19   18   18   17   17   16   16   15   15   14   14   13   13   12   12   11   11   10   10    9    9    8    8    7    7    6    6    5    5    4    4    3    3    2    2    1    1    0    2    1    3    2    4    3    5    4  
 21   22   20   21   19   20   18   19   17   18   16   17   15   16   14   15   13   14   12   13   11   12   10   11    9   10    8    9    7    8    6    7    5    6    4    5    3    4    2    3    1    2    0    1    1    2    2    3    3    4  
 22   21   21   20   20   19   19   18   18   17   17   16   16   15   15   14   14   13   13   12   12   11   11   10   10    9    9    8    8    7    7    6    6    5    5    4    4    3    3    2    2    1    1    0    2    1    3    2    4    3  
 22   23   21   22   20   21   19   20   18   19   17   18   16   17   15   16   14   15   13   14   12   13   11   12   10   11    9   10    8    9    7    8    6    7    5    6    4    5    3    4    2    3    1    2    0    1    1    2    2    3  
 23   22   22   21   21   20   20   19   19   18   18   17   17   16   16   15   15   14   14   13   13   12   12   11   11   10   10    9    9    8    8    7    7    6    6    5    5    4    4    3    3    2    2    1    1    0    2    1    3    2  
 23   24   22   23   21   22   20   21   19   20   18   19   17   18   16   17   15   16   14   15   13   14   12   13   11   12   10   11    9   10    8    9    7    8    6    7    5    6    4    5    3    4    2    3    1    2    0    1    1    2  
 24   23   23   22   22   21   21   20   20   19   19   18   18   17   17   16   16   15   15   14   14   13   13   12   12   11   11   10   10    9    9    8    8    7    7    6    6    5    5    4    4    3    3    2    2    1    1    0    2    1  
 24   25   23   24   22   23   21   22   20   21   19   20   18   19   17   18   16   17   15   16   14   15   13   14   12   13   11   12   10   11    9   10    8    9    7    8    6    7    5    6    4    5    3    4    2    3    1    2    0    1  
 25   24   24   23   23   22   22   21   21   20   20   19   19   18   18   17   17   16   16   15   15   14   14   13   13   12   12   11   11   10   10    9    9    8    8    7    7    6    6    5    5    4    4    3    3    2    2    1    1    0  

  0    0    0    0    0    0   56    0   60    0    0    7   82    0   92    0   32    0    0   11   60   38    0   38    0    0    0    0   68   65    0    0   33    0    0   36    0   42    0    0   46   74    0   99   78    0   36   45    0   27  
  0    0   47   47    7   43   51    0   85    0   75   58    0    0    0    0    0    0    0   92   58   61   93    0   20   25    0    0   19    0   71    0   97   10   42    0   10    0   78   69    5    0    0   76    0    0   43   99   76    0  
  0   80    0   12   82   19    0   58    0   60   88    0    0   51    0   13    0    9   12   12    0    0   11    0   66   60    0   28    0    0   31    0    0   81    4   44   44    0    0   67    0    0    8    0    0   95    0    0   57    0  
  0   40   53    0   31   93    0   68    0   66   51    0    0    0    0    0    0   54   93   26    0    0    4    0   93   34    0   56    0   14   27    0    0   29   78   73    2    0   98   15    0    0   21    0    0    0    0    0   96    0  
  0   59    2   30    0   65   92   78    2    0   18    0   70   39    0    0   97   30   58   88   94   56   27    0   98    9    0   73   46    0    9    0   62   11   24   80   97    0   78   84    0    0   18    0    0    9   68   26   67   50  
 86   49   63   14   50    0   55    7    0   43   44    0    0   85    0   29    0   69   79   58    0    8   93    0   23   23    0   24    0    0   30   20    0   33   91    0   26    0   80   18    0    0   15    0    0   32   90   44   18    0  
 28   83    0    0   66   45    0    0   18    0    0    0   58   16   11    0   77    0    0   50   44   18   79   86   67    0    0    0   52   66    0    0   45   67   77   63   32   69    4    0    1    1    0   64   44    0   19   40    0   75  
  0    0   16    3   83   34    0    0    0   63   38   73    0   42    0   95    0    1   79   84    0    0    0    0    0   34   90   45    0    0   49    9    0   95   35    0    0    0    0    0    0    0    8    0    0   23    0    0    0    0  
 34    6    0    0   19    0   62   75    0    0    0    0   98    0   57    0    0    0    0   77   49   90    0    0   90    0    0    0   96   19    0    0   96    0    0   67   61    0   56    0   62    0    0   63    2    0   26    2    0    0  
  0    0   86   76    0   87    0   46    0    0   99   99    7   70    0   25    0   83   60    0   51    0    0   53    0   21    9   38    0    0   53    0    0   92   91    0    0    0   51    0    0    0   70    0    0   43    0    0    0    0  
  0   21   92   23   94   98    0   10    0   69    0    0   29   16    0   58   80    9   87    5    0    0   68    0   64   21    0   87    0    0   64    0    0   77   85    0   12    0    3   94    0    0   25    0   51    0    0   96    7    4  
  0    0    0    0    0    0    0   72    0   18    0    0    0   48    0   35    0   22   33    0   26    0    0    0    0    0   13   64    0    0    0   63    0    0    0    0    0    0    0    0    0    0   35    0    0    5   15    0    0    0  
 67    0    0    0   54    0   54   68   76    0    0    0    0    5   69    0   34    0    0    9   92   16   24   58    0    0    0    0   48   64    0    0    1   25    0   67   43   69    0    0   38   67    0   41   38   26   56   42    0   90  
  0    0   71    0   90   87    7   95    0   71   46    4   62    0    0   12    0   86   48   14    0   54   51    0   62   25   18   13    0    0   70   63    0   96    9   67   15   81    0    0    0   14   29    0    0   74    6   89    0    0  
 56    0   88    0    0    0   72    0   73    0    0    0   14    0    0    0    0    0    0    0   19    0    0    0    0    0    0    0   70   44    0    0    7    0    0    0   56    0   27    0   65    0    0   86    0    0   17   51    0    0  
  0    0   32    0    0   66    0   33    0   28   72   30    0   97    0    0    0   82   97    0    0    0    0    0   66   74   53   29    0    0   48   31    0    0   32    0    0    0    0    0    0    0   34    0    0   98    0    0    0    0  
 62    0    0    0    0    0   95    0    0    0    0   60   96    0    0    0    0    0    0    0    0   41    0   55   66    0    0    0    0    0    0   89    0   32    0    8    0   56    0    0    0   70    0    0    6   54    0    9    0   71  
  0    0   96   82   42   85    0   71    0   68   51   25    0   14    0   34    0    0   85   50    0   50   54    0   40   97   50   43    0    0   70   20    0   79   67    0    0    0    0    0    0    0   11    0    0    1    0    0    0    0  
  0    0   83   68   32   22    0   84    0   42   17   81    0   86    0    7    0    8    0   37    0    6   36    0   26   94   22   80    0    0   90   11    0   10    3    0    0    0    0    0    0   16   98    0    0   15    0    0    0    0  
 67   25   90    9   15   66   83   89   67    0   27    0   72   91    0    0    0   73   99    0   99   46   46    0   22   22    0    0   64   74   50    5   12   23   36   46    6   61   85   91    8    2    0    0    0   28   38   66   55    0  
 77   94    0    0    0    0   63    0   20    0    0    0   36    0   89    0    0    0    0   54    0    0   31    0   33    0    0    0   49   14    0    0   93    0    0    0   71    0   16    0   51    0    0   33    0    0   28   39    0    0  
 28   95    0    0   84   14   81    0    7    0    0    0   34   46    0    0   46  100   42   23    0    0   36   51   58    0    0    0   77   58   75   57   89   32   46   50   62   26    9    0    0   45    0    0   97   42   95   62    0   30  
  0   82    6    8   84   42   74    0   31    0   82    0    0  100    0    0    0   35   86    8    0   27    0    0   49   87    0    0    0    0   25    0    0   22   37    0    3    0   73   96    0    0   76    0    0    0   44   57   91    0  
 33    0    0    0    0    0   44    0    0    0    0   86   32    0    0    0   11    0    0    0    0   40    0    0    0    0    0    0   58    0    0    3    0    0    0   89    0   13    0    0    0   29    0    0   62   90    0   50    0   83  
  0   74   44   47   15   79   40    0   69    0   47    0    0   66    0    0    0   52   60   89   95   51   74    0    0   95    0    0   84    0   96    0   61   97   60    0   34    0   89   88    0    0   13    0    0   63    7   10   52    0  
  0   87   59   87   22   52    0   41    0   80   22    0    0   10    0   94    0   43   72   13    0    0   82    0   62    0    0   59    0    0   47    0    0   95   20    0   20    0    0   72    0    0   47    0    0    0    0    0   18   43  
  0    0    0    0    0    0    0    9    0   69    0   99    0   57    0   65    0   38   54    0    0    0    0    0    0    0    0   90    0    0    0   27    0    0   49    0    0    0    0    0    0    0   63   84    0   55    0    0    0    0  
  0    0   36   21   54   29    0   76    0   33   50   21    0   86    0   51    0   79   13    0    0    0    0   71    0   87   57    0    0    0   86    0    0    4    4    0    0    0    0    0    0    0   45    0    0   34    0    0    0    0  
 31   72    0    0   94    0   93    0    9    8    0    0    8    0   12    0    0    0    0   24   77   43    0   81   46    0   23    0    0   12   29    0   95   14    0   88   30   61   78    0   21   18    0   91   47    0   43   64    0    0  
 25    0    0    0    0    0   76    0   44    0    0    0   18    0   63    0    0    0    0   92  100   12    0    0    0    0    0    0   94    0    0    0   41    0    0   32   74    0    0    0   62   58    0    6   67    0   90   61    0    0  
  0   51   20   95   74   87    0   53   43   35    9    0    0    3    0   79    0   68   80    7    0   89   30    0    3    8    0   54    0    0    0    0    0   63   51    0   46    0   73   72    0    0   89    0    0    6    0    0   77    0  
  0    0    0    0    0   10    0   35    0    0    0    8    0    2    0   13    8   95   11   81    0    9    0   57    0    0    7    0    0    3    0    0    0   34   80   68    0   48    0    0    0   31    0    0    0   55    0    0    0    9  
 67   91    0    0   27    0   49    0   63    0    0    0    2    0   59    0    0    0    0   12   93   16   92   72   96    0    0    0   14   28    0    0    0    0    0   16   99    0   54    0    2    0    0   54   41    0   13   15    0    0  
  0   37   48   19   84   74   63   32   43   81   56    0   93   49    0    0    0   35   12   41    0   25   38   79   89   19    0   29   87    0    5   15    0    0   65   11   10    0   10   44    0   49   63    0    0    1   83   34   98    0  
  0   84   57   64   18    5   30   36    0   61   13    0    0   25    0   71    0   66   78   43    0   35   82    0   20   18  100   73    0    0   37   76    0   51    0    0   36    0   53   36    0   95   56    0    0   15   21   11   83    0  
 50    0    0    0   54    0   16    0   56    0    0    0   51   50    0   60   36    0    0   47    0   74    0   46    0    0    0   68   68   19    0   24   69    4    0    0    0   73    0    0    0   74    0    0   89   84   62   31    0   87  
  0   60   14   15   35   39   67    0   80   32   26    0   21   64   91    0    0    0    0   52   60   56   85    0   75   24    0    0   13   73   71    0   78   69   55    0    0    0   48   23   17    0    0   34    0    0   13   17   49    0  
 16    0    0    0    0    0   70    0    0    0    0   28   49   62    0    0   39    0   94   90    0    3    0   76    0    0    0    0   13    0    0   67    0    0    0    4    0    0    0    0    0   63    0    0   50   79    0   10    0   42  
  0    3    0   33   46   62   57    0   52    0   70    0    0    0    8    0    0    0    0   41   80   50   33    0   95    0    0    0   43    0   20    0   21    6   52    0   33    0    0   28   73    0   80   66    0    0   82   67   36    0  
  0   41    6   82   54   45    0    0    0    0   48    0    0    0    0    0    0    0    0   18    0    0   80    0   80   16    0    0    0    0   95    0    0   22   61    0   50    0   45    0    0    0   59    0    0    0   18    0   80    0  
 34   22    0    0    0   48   77    0  100    0    0    0   32    0   20    0    0    0    0   29    3    0    0   80    0    0    0    0    6   90    0    0   59    0    0    0   92    0   18    0    0    0    0   74    0    0   54   76    0    0  
 93    1    0    0    0    0   74    0    0    0    0    0   38   39    0    0   98    0   48   88    0   59    0   64    0    0    0    0    7    0    0    2    0   14   20   51    0   76    0    0    0    0    0    0  100   11    0   35    0   70  
  0    0   40   80   53   46    0   82    0   87   22   90    0   96    0   26    0   17   60    0    0    0   93    0   10   93   98   68    0    0   65    0   77   70   25    0    0    0    0   22    0    0    0    0    0    0    0    0   52    0  
 16    4    0    0    0    0   93    0   88   59    0    0   86    0   12    0    0    0    0    0   71    0    0    0    0    0    0    0   45   27    0    0   19    0    0    0   61    0   84    0   85    0    0    0    0    0    7   67    0    0  
 40    0    0    0    0    0   82   80   49    0    0    0   19    0   86    0   37    0    0    0    0   32    0   27    0    0    0    0   86   75    0    0   89    0    0   44    0   96    0    0    0   73    0    0    0    0    0   89    0   14  
  0    0    0    0   95    1    0   37    0   52    0   89    7    4    0   69   81   54   50   40    0   69    0  100    0    0   39   70    0    0   89   28    0   82   59   84    0   73    0    0    0   87    0    0    0    0    0   42    0   20  
 90   40    0    0   53   87   73    0   46   81    0    0   61   74   44    0    0    0    0   13   62   32   57    0   65    0   65    0   15   12    0   92   73   27   19   25   70    0   39   45   71    0    0   13   49   49    0   60    0    0  
 56   91    0    0   76   47   45    0   38    0    0    0   79   65   43    0   36    0    0   47   52   12   87   31   10    0    0    0    9  100    0    0   58   55   37   15   82   44   71    0   26   59    0   61   54    2   43    0    0   14  
  0   15   87   87   33   35    0    0    0    0   40    0    0    0    0    0    0    0    0   73    0    0   62    0   66   33   42    0    0    0   12    0    0   71   55    0   72    0   93    1    0    0  100    0    0    0    0    0    0    0  
 17    0    0    0    0    0   47    0    0    0    0    0    5    0    0    0   77    0    0    0    0   62    0   93    0    0    0    0    0    0    0   94    0    0    0   50    0   25    0    0    0   34    0    0   19   67    0   84    0    0  
